DIMACS2
80 578 342 512 168 407 331 57 427 332 153 278 463 251 518 347 343 548 50 397 532 566 622 537 23 598 420 125 451 435 77 191 174 568 281 323 607 134 630 43 101 523 111 547 429 18 413 17 84 437 26 74 544 417 348 58 65 123 124 338 380 129 122 376 78 113 309 498 396 40 237 587 86 143 540 401 500 394 554 193 95
p edge 640 2620
e 0 290 1.0
e 0 431 1.0
e 0 404 1.0
e 0 318 1.0
e 1 540 29.0
e 1 484 1.0
e 1 515 1.0
e 1 587 36.0
e 2 496 1.0
e 2 357 1.0
e 2 380 39.0
e 2 463 8.0
e 3 254 1.0
e 3 326 1.0
e 3 296 1.0
e 3 581 1.0
e 4 631 1.0
e 4 227 1.0
e 4 260 1.0
e 4 82 1.0
e 5 563 2.0
e 5 556 2.0
e 5 495 1.0
e 5 85 2.0
e 6 159 1.0
e 6 86 35.0
e 6 236 1.0
e 6 442 2.0
e 7 454 1.0
e 7 602 2.0
e 7 129 33.0
e 7 516 1.0
e 8 309 27.0
e 8 243 1.0
e 8 399 1.0
e 8 548 33.0
e 9 446 1.0
e 9 626 1.0
e 9 386 1.0
e 9 255 2.0
e 10 545 1.0
e 10 3 1.0
e 10 337 1.0
e 10 199 1.0
e 11 572 2.0
e 11 112 3.0
e 11 322 2.0
e 11 306 1.0
e 12 430 1.0
e 12 536 1.0
e 12 370 1.0
e 12 51 1.0
e 13 460 1.0
e 13 213 1.0
e 13 403 1.0
e 13 164 2.0
e 14 296 1.0
e 14 311 1.0
e 14 502 1.0
e 14 413 18.0
e 15 371 2.0
e 15 23 49.0
e 15 393 1.0
e 15 594 1.0
e 16 622 41.0
e 16 334 2.0
e 16 494 1.0
e 16 540 49.0
e 17 5 20.0
e 17 197 28.0
e 17 112 46.0
e 17 447 35.0
e 17 578 17.0
e 18 142 31.0
e 18 464 6.0
e 18 205 34.0
e 18 8 25.0
e 19 403 1.0
e 19 148 1.0
e 19 634 2.0
e 19 205 1.0
e 20 253 1.0
e 20 626 1.0
e 20 16 1.0
e 20 220 1.0
e 21 17 3.0
e 21 619 2.0
e 21 285 2.0
e 21 46 1.0
e 22 287 1.0
e 22 384 1.0
e 22 311 1.0
e 22 509 1.0
e 23 66 37.0
e 23 547 23.0
e 23 479 27.0
e 23 546 38.0
e 23 500 7.0
e 24 221 1.0
e 24 452 1.0
e 24 100 1.0
e 25 582 1.0
e 25 254 1.0
e 25 473 1.0
e 25 341 1.0
e 26 439 26.0
e 26 326 41.0
e 26 508 38.0
e 26 337 19.0
e 27 467 1.0
e 27 338 41.0
e 27 451 7.0
e 27 269 2.0
e 28 410 1.0
e 28 600 1.0
e 28 279 1.0
e 28 132 2.0
e 29 89 2.0
e 29 479 1.0
e 29 131 1.0
e 29 15 1.0
e 30 125 5.0
e 30 430 1.0
e 30 426 1.0
e 30 206 1.0
e 31 126 1.0
e 31 491 1.0
e 31 416 1.0
e 31 250 1.0
e 32 87 1.0
e 32 173 1.0
e 32 544 19.0
e 32 566 8.0
e 33 106 1.0
e 33 285 2.0
e 33 26 41.0
e 33 527 2.0
e 34 169 1.0
e 34 108 1.0
e 34 598 1.0
e 34 354 1.0
e 35 262 2.0
e 35 298 1.0
e 35 518 18.0
e 35 488 1.0
e 36 247 1.0
e 36 562 1.0
e 36 588 1.0
e 36 520 1.0
e 37 238 1.0
e 37 91 1.0
e 37 368 1.0
e 37 133 1.0
e 38 63 1.0
e 38 593 1.0
e 38 427 25.0
e 38 448 1.0
e 39 482 1.0
e 39 622 28.0
e 39 251 10.0
e 39 397 14.0
e 40 25 39.0
e 40 189 42.0
e 40 451 5.0
e 40 114 32.0
e 40 500 15.0
e 40 607 43.0
e 40 111 40.0
e 41 567 1.0
e 41 583 1.0
e 41 46 1.0
e 41 289 1.0
e 42 130 2.0
e 42 279 2.0
e 42 602 1.0
e 42 59 2.0
e 43 345 11.0
e 43 303 28.0
e 43 1 1.0
e 43 622 35.0
e 43 191 41.0
e 44 110 1.0
e 44 476 1.0
e 44 62 2.0
e 44 31 1.0
e 45 631 1.0
e 45 92 1.0
e 45 150 1.0
e 45 396 27.0
e 46 435 49.0
e 46 202 2.0
e 46 153 3.0
e 46 485 1.0
e 47 279 1.0
e 47 559 1.0
e 47 597 1.0
e 47 439 2.0
e 48 222 2.0
e 48 529 1.0
e 48 417 8.0
e 48 238 1.0
e 49 404 2.0
e 49 216 3.0
e 49 12 1.0
e 49 223 1.0
e 50 153 7.0
e 50 313 37.0
e 50 461 20.0
e 50 523 30.0
e 50 237 41.0
e 51 539 2.0
e 51 223 2.0
e 51 144 1.0
e 51 2 1.0
e 52 107 1.0
e 52 37 2.0
e 52 312 1.0
e 52 494 1.0
e 53 320 1.0
e 53 31 1.0
e 53 167 1.0
e 53 105 1.0
e 54 202 1.0
e 54 104 1.0
e 54 488 2.0
e 54 291 2.0
e 55 100 1.0
e 55 140 1.0
e 55 561 1.0
e 55 275 1.0
e 56 426 1.0
e 56 148 1.0
e 56 295 1.0
e 56 126 2.0
e 57 34 32.0
e 57 585 28.0
e 57 235 47.0
e 57 114 12.0
e 58 493 40.0
e 58 25 18.0
e 58 577 42.0
e 58 636 20.0
e 58 191 37.0
e 59 351 1.0
e 59 412 1.0
e 59 353 2.0
e 59 419 1.0
e 60 190 1.0
e 60 114 1.0
e 60 74 42.0
e 60 540 4.0
e 61 247 1.0
e 61 624 1.0
e 61 317 1.0
e 61 119 2.0
e 62 60 1.0
e 62 58 38.0
e 62 193 6.0
e 62 165 1.0
e 63 590 1.0
e 63 476 2.0
e 63 452 1.0
e 63 81 2.0
e 64 235 1.0
e 64 222 1.0
e 64 3 1.0
e 64 91 1.0
e 65 201 49.0
e 65 577 21.0
e 65 636 23.0
e 65 26 18.0
e 65 74 17.0
e 65 17 7.0
e 65 323 34.0
e 66 328 1.0
e 66 597 1.0
e 66 530 2.0
e 66 450 1.0
e 67 455 1.0
e 67 520 2.0
e 67 250 1.0
e 67 97 1.0
e 68 564 1.0
e 68 101 1.0
e 68 153 40.0
e 68 125 47.0
e 69 515 1.0
e 69 268 1.0
e 69 467 1.0
e 69 226 1.0
e 70 479 2.0
e 70 525 1.0
e 70 23 9.0
e 70 553 1.0
e 71 620 1.0
e 71 80 2.0
e 71 556 1.0
e 71 139 1.0
e 72 327 1.0
e 72 621 2.0
e 72 175 1.0
e 72 137 1.0
e 73 284 2.0
e 73 252 1.0
e 73 589 1.0
e 73 580 1.0
e 74 217 46.0
e 74 168 40.0
e 74 88 12.0
e 74 579 28.0
e 74 191 14.0
e 75 131 2.0
e 75 527 1.0
e 75 246 2.0
e 75 425 1.0
e 76 434 1.0
e 76 28 1.0
e 76 100 1.0
e 76 8 1.0
e 77 291 44.0
e 77 366 39.0
e 77 489 40.0
e 77 335 2.0
e 77 394 19.0
e 77 323 23.0
e 77 237 34.0
e 78 107 4.0
e 78 406 3.0
e 78 360 33.0
e 78 618 35.0
e 78 124 6.0
e 79 533 1.0
e 79 366 1.0
e 79 577 1.0
e 79 253 1.0
e 80 218 1.0
e 80 311 1.0
e 80 537 35.0
e 80 335 2.0
e 81 72 1.0
e 81 255 1.0
e 81 470 2.0
e 81 493 2.0
e 82 450 1.0
e 82 137 1.0
e 82 126 1.0
e 82 427 26.0
e 83 17 14.0
e 83 378 1.0
e 83 113 22.0
e 83 57 38.0
e 84 13 48.0
e 84 359 24.0
e 84 125 4.0
e 84 580 1.0
e 84 278 14.0
e 85 219 1.0
e 85 505 1.0
e 85 550 1.0
e 85 601 1.0
e 86 195 38.0
e 86 460 48.0
e 86 541 34.0
e 86 287 23.0
e 86 143 24.0
e 87 618 1.0
e 87 382 1.0
e 87 541 1.0
e 87 75 1.0
e 88 521 1.0
e 88 598 33.0
e 88 582 1.0
e 88 251 22.0
e 89 594 2.0
e 89 555 1.0
e 89 70 2.0
e 89 545 1.0
e 90 318 2.0
e 90 407 3.0
e 90 424 1.0
e 90 261 2.0
e 91 168 16.0
e 91 469 2.0
e 91 174 5.0
e 91 613 1.0
e 92 245 1.0
e 92 409 1.0
e 92 306 1.0
e 92 407 34.0
e 93 256 2.0
e 93 155 2.0
e 93 151 2.0
e 93 40 38.0
e 94 301 2.0
e 94 370 2.0
e 94 475 1.0
e 94 113 18.0
e 95 358 23.0
e 95 345 15.0
e 95 219 21.0
e 95 272 14.0
e 95 74 44.0
e 96 467 1.0
e 96 321 1.0
e 96 18 49.0
e 96 379 1.0
e 97 193 26.0
e 97 335 1.0
e 97 216 2.0
e 97 456 1.0
e 98 444 1.0
e 98 232 1.0
e 98 38 1.0
e 98 482 1.0
e 99 340 1.0
e 99 501 2.0
e 99 462 1.0
e 99 145 1.0
e 100 177 1.0
e 100 324 1.0
e 100 218 1.0
e 100 41 1.0
e 101 325 12.0
e 101 358 34.0
e 101 562 8.0
e 101 312 24.0
e 101 40 22.0
e 102 183 2.0
e 102 594 2.0
e 102 254 1.0
e 102 548 28.0
e 103 256 1.0
e 103 55 1.0
e 103 629 1.0
e 103 396 32.0
e 104 273 1.0
e 104 272 2.0
e 104 77 2.0
e 104 261 1.0
e 105 169 2.0
e 105 226 1.0
e 105 39 1.0
e 105 394 35.0
e 106 611 2.0
e 106 576 2.0
e 106 566 13.0
e 106 559 1.0
e 107 38 1.0
e 107 436 1.0
e 107 407 5.0
e 107 222 2.0
e 108 631 2.0
e 108 211 1.0
e 108 607 19.0
e 108 523 31.0
e 109 588 1.0
e 109 444 1.0
e 109 428 2.0
e 109 60 1.0
e 110 445 1.0
e 110 149 2.0
e 110 389 1.0
e 110 496 1.0
e 111 597 34.0
e 111 360 28.0
e 111 125 36.0
e 111 426 45.0
e 112 330 1.0
e 112 14 2.0
e 112 400 2.0
e 112 333 2.0
e 113 554 39.0
e 113 319 14.0
e 113 11 9.0
e 113 332 19.0
e 113 18 39.0
e 113 237 47.0
e 114 104 1.0
e 114 467 1.0
e 114 493 1.0
e 114 544 3.0
e 115 50 6.0
e 115 217 2.0
e 115 592 3.0
e 115 40 3.0
e 116 227 1.0
e 116 0 1.0
e 116 87 1.0
e 116 305 1.0
e 117 618 1.0
e 117 107 2.0
e 117 438 1.0
e 117 252 1.0
e 118 432 1.0
e 118 458 1.0
e 118 48 2.0
e 118 464 1.0
e 119 512 2.0
e 119 601 1.0
e 119 588 1.0
e 119 17 37.0
e 120 485 1.0
e 120 277 1.0
e 120 527 2.0
e 120 11 1.0
e 121 433 2.0
e 121 144 1.0
e 121 70 2.0
e 121 286 2.0
e 122 121 43.0
e 122 161 13.0
e 122 192 45.0
e 122 611 29.0
e 123 95 4.0
e 123 297 28.0
e 123 565 28.0
e 123 45 38.0
e 123 111 32.0
e 123 540 25.0
e 124 165 14.0
e 124 210 14.0
e 124 287 7.0
e 124 301 32.0
e 125 99 20.0
e 125 178 31.0
e 125 442 44.0
e 125 443 6.0
e 126 369 2.0
e 126 373 1.0
e 126 38 1.0
e 126 628 1.0
e 127 92 2.0
e 127 469 1.0
e 127 461 1.0
e 127 319 1.0
e 128 528 1.0
e 128 501 1.0
e 128 247 1.0
e 128 230 1.0
e 129 174 36.0
e 129 271 7.0
e 129 150 9.0
e 129 315 7.0
e 130 395 2.0
e 130 595 1.0
e 130 95 19.0
e 130 616 2.0
e 131 330 1.0
e 131 197 1.0
e 131 365 1.0
e 131 73 1.0
e 132 545 1.0
e 132 607 30.0
e 132 534 2.0
e 132 36 1.0
e 133 434 1.0
e 133 74 33.0
e 133 507 2.0
e 133 476 2.0
e 134 451 32.0
e 134 381 43.0
e 134 481 46.0
e 134 207 22.0
e 134 435 49.0
e 134 123 19.0
e 134 153 8.0
e 135 160 1.0
e 135 408 1.0
e 135 525 1.0
e 135 411 3.0
e 136 315 1.0
e 136 567 2.0
e 136 537 15.0
e 136 31 2.0
e 137 84 47.0
e 137 136 2.0
e 137 360 1.0
e 137 39 2.0
e 138 437 21.0
e 138 593 2.0
e 138 219 1.0
e 138 51 1.0
e 139 439 1.0
e 139 172 1.0
e 139 474 1.0
e 139 604 2.0
e 140 517 1.0
e 140 405 1.0
e 140 442 1.0
e 140 282 1.0
e 141 405 1.0
e 141 330 1.0
e 141 535 1.0
e 141 312 1.0
e 142 175 1.0
e 142 533 1.0
e 142 422 3.0
e 142 140 1.0
e 143 429 2.0
e 143 576 36.0
e 143 80 26.0
e 143 219 37.0
e 143 278 19.0
e 144 457 1.0
e 144 161 1.0
e 144 623 1.0
e 144 526 1.0
e 145 144 1.0
e 145 125 43.0
e 145 543 1.0
e 145 23 13.0
e 146 288 1.0
e 146 53 1.0
e 146 609 1.0
e 146 308 1.0
e 147 14 2.0
e 147 612 3.0
e 147 193 27.0
e 147 273 2.0
e 148 366 1.0
e 148 202 1.0
e 148 251 39.0
e 148 546 2.0
e 149 124 41.0
e 149 182 1.0
e 149 97 1.0
e 149 464 1.0
e 150 98 1.0
e 150 523 17.0
e 150 65 34.0
e 150 601 1.0
e 151 70 1.0
e 151 97 1.0
e 151 120 2.0
e 151 339 2.0
e 152 0 2.0
e 152 212 1.0
e 152 196 2.0
e 152 168 16.0
e 153 559 25.0
e 153 526 25.0
e 153 105 44.0
e 154 590 1.0
e 154 150 1.0
e 154 142 1.0
e 154 398 1.0
e 155 443 1.0
e 155 461 1.0
e 155 102 1.0
e 155 236 1.0
e 156 314 1.0
e 156 520 1.0
e 156 124 43.0
e 156 386 1.0
e 157 595 1.0
e 157 491 2.0
e 157 276 1.0
e 157 98 1.0
e 158 278 25.0
e 158 528 1.0
e 158 193 37.0
e 158 626 1.0
e 159 411 1.0
e 159 617 1.0
e 159 280 1.0
e 159 33 2.0
e 160 601 1.0
e 160 508 2.0
e 160 302 2.0
e 160 137 1.0
e 161 373 1.0
e 161 89 1.0
e 161 155 1.0
e 161 523 46.0
e 162 440 1.0
e 162 24 1.0
e 162 427 48.0
e 162 185 1.0
e 163 441 1.0
e 163 296 1.0
e 163 203 1.0
e 163 48 3.0
e 164 621 1.0
e 164 438 2.0
e 164 311 1.0
e 164 244 1.0
e 165 429 46.0
e 165 72 1.0
e 165 255 2.0
e 165 486 1.0
e 166 316 1.0
e 166 634 2.0
e 166 23 20.0
e 166 248 1.0
e 167 550 1.0
e 167 566 24.0
e 167 325 1.0
e 167 347 23.0
e 168 212 37.0
e 168 118 4.0
e 168 352 42.0
e 168 401 9.0
e 169 365 2.0
e 169 120 1.0
e 169 160 2.0
e 169 162 2.0
e 170 313 1.0
e 170 264 2.0
e 170 133 2.0
e 170 350 1.0
e 171 458 1.0
e 171 232 3.0
e 171 597 1.0
e 171 486 1.0
e 172 130 2.0
e 172 49 1.0
e 172 340 1.0
e 172 164 1.0
e 173 395 1.0
e 173 30 2.0
e 173 307 1.0
e 173 384 1.0
e 174 279 3.0
e 174 562 18.0
e 174 458 21.0
e 174 634 23.0
e 175 486 1.0
e 175 479 2.0
e 175 516 1.0
e 175 202 1.0
e 176 197 1.0
e 176 10 1.0
e 176 14 1.0
e 176 497 1.0
e 177 633 2.0
e 177 236 1.0
e 177 385 1.0
e 177 147 2.0
e 178 116 1.0
e 178 486 1.0
e 178 442 1.0
e 178 26 26.0
e 179 376 23.0
e 179 18 2.0
e 179 37 1.0
e 179 616 1.0
e 180 402 1.0
e 180 262 1.0
e 180 4 1.0
e 180 318 1.0
e 181 389 1.0
e 181 117 1.0
e 181 62 1.0
e 181 312 2.0
e 182 308 1.0
e 182 363 1.0
e 182 19 1.0
e 182 154 1.0
e 183 626 1.0
e 183 486 1.0
e 183 130 1.0
e 183 517 1.0
e 184 132 1.0
e 184 630 28.0
e 184 239 1.0
e 184 390 1.0
e 185 178 1.0
e 185 35 1.0
e 185 574 1.0
e 185 97 1.0
e 186 579 1.0
e 186 520 1.0
e 186 16 1.0
e 186 194 3.0
e 187 424 1.0
e 187 626 1.0
e 187 116 1.0
e 187 84 15.0
e 188 267 1.0
e 188 590 1.0
e 188 470 1.0
e 188 415 1.0
e 189 400 1.0
e 189 354 1.0
e 189 630 43.0
e 189 401 23.0
e 190 12 1.0
e 190 37 2.0
e 190 465 1.0
e 190 238 1.0
e 191 512 38.0
e 191 4 6.0
e 191 57 4.0
e 191 497 37.0
e 192 562 1.0
e 192 403 1.0
e 192 32 1.0
e 192 492 2.0
e 193 220 35.0
e 193 82 40.0
e 193 409 21.0
e 193 261 12.0
e 194 598 32.0
e 194 355 1.0
e 194 167 1.0
e 194 636 1.0
e 195 130 1.0
e 195 273 1.0
e 195 302 1.0
e 195 390 1.0
e 196 439 2.0
e 196 485 1.0
e 196 600 1.0
e 196 191 28.0
e 197 280 1.0
e 197 167 1.0
e 197 261 1.0
e 197 122 16.0
e 198 8 2.0
e 198 392 1.0
e 198 447 2.0
e 198 401 24.0
e 199 313 1.0
e 199 462 1.0
e 199 178 1.0
e 199 396 28.0
e 200 462 2.0
e 200 595 2.0
e 200 127 1.0
e 200 290 1.0
e 201 550 1.0
e 201 46 1.0
e 201 221 2.0
e 201 154 1.0
e 202 18 44.0
e 202 121 1.0
e 202 184 1.0
e 202 107 1.0
e 203 577 1.0
e 203 599 1.0
e 203 68 1.0
e 203 244 1.0
e 204 180 2.0
e 204 133 1.0
e 204 436 1.0
e 204 423 1.0
e 205 316 2.0
e 205 218 1.0
e 205 441 1.0
e 205 523 28.0
e 206 514 2.0
e 206 373 2.0
e 206 26 47.0
e 206 138 2.0
e 207 163 1.0
e 207 185 2.0
e 207 545 1.0
e 207 274 1.0
e 208 111 46.0
e 208 606 1.0
e 208 396 43.0
e 208 154 1.0
e 209 0 1.0
e 209 364 1.0
e 209 549 1.0
e 209 618 1.0
e 210 282 1.0
e 210 382 1.0
e 210 320 2.0
e 210 89 2.0
e 211 403 1.0
e 211 262 1.0
e 211 269 1.0
e 211 235 1.0
e 212 109 1.0
e 212 310 1.0
e 212 624 1.0
e 212 463 35.0
e 213 68 1.0
e 213 571 1.0
e 213 312 2.0
e 213 405 1.0
e 214 631 2.0
e 214 277 2.0
e 214 441 1.0
e 214 116 1.0
e 215 532 7.0
e 215 72 2.0
e 215 444 1.0
e 215 580 1.0
e 216 490 2.0
e 216 174 47.0
e 216 231 2.0
e 216 112 1.0
e 217 71 2.0
e 217 403 1.0
e 217 517 2.0
e 217 83 1.0
e 218 473 1.0
e 218 372 1.0
e 218 302 1.0
e 218 367 1.0
e 219 600 1.0
e 219 507 1.0
e 219 573 1.0
e 219 197 1.0
e 220 175 1.0
e 220 145 1.0
e 220 230 2.0
e 220 582 1.0
e 221 375 3.0
e 221 634 1.0
e 221 436 2.0
e 221 119 1.0
e 222 239 2.0
e 222 253 2.0
e 222 132 1.0
e 222 205 1.0
e 223 532 49.0
e 223 431 2.0
e 223 439 1.0
e 223 552 1.0
e 224 332 13.0
e 224 579 1.0
e 224 57 2.0
e 224 341 1.0
e 225 72 2.0
e 225 70 1.0
e 225 632 1.0
e 225 293 1.0
e 226 637 1.0
e 226 100 1.0
e 226 127 1.0
e 226 558 1.0
e 227 21 1.0
e 227 617 2.0
e 227 236 3.0
e 227 143 49.0
e 228 100 1.0
e 228 165 1.0
e 228 88 1.0
e 228 195 2.0
e 229 64 1.0
e 229 459 1.0
e 229 4 1.0
e 229 307 1.0
e 230 119 1.0
e 230 584 2.0
e 230 443 1.0
e 230 261 1.0
e 231 548 37.0
e 231 21 1.0
e 231 382 1.0
e 231 454 1.0
e 232 284 1.0
e 232 636 1.0
e 232 72 3.0
e 232 270 3.0
e 233 556 1.0
e 233 281 31.0
e 233 292 2.0
e 233 112 1.0
e 234 221 2.0
e 234 123 43.0
e 234 489 1.0
e 234 114 1.0
e 235 520 1.0
e 235 43 19.0
e 235 504 1.0
e 235 111 37.0
e 236 389 1.0
e 236 314 1.0
e 236 161 1.0
e 236 266 2.0
e 237 122 29.0
e 237 86 2.0
e 237 88 28.0
e 237 52 3.0
e 237 124 1.0
e 237 397 45.0
e 238 495 2.0
e 238 630 42.0
e 238 179 1.0
e 238 589 1.0
e 239 62 3.0
e 239 38 1.0
e 239 498 1.0
e 239 619 1.0
e 240 345 1.0
e 240 522 1.0
e 240 295 1.0
e 240 315 1.0
e 241 526 1.0
e 241 221 1.0
e 241 167 1.0
e 241 343 42.0
e 242 582 2.0
e 242 534 1.0
e 242 97 1.0
e 242 92 1.0
e 243 431 1.0
e 243 552 1.0
e 243 415 1.0
e 243 371 1.0
e 244 328 1.0
e 244 152 1.0
e 244 601 1.0
e 244 31 1.0
e 245 109 2.0
e 245 409 1.0
e 245 347 34.0
e 245 457 2.0
e 246 80 1.0
e 246 552 1.0
e 246 393 1.0
e 246 588 1.0
e 247 256 1.0
e 247 546 1.0
e 247 255 1.0
e 247 320 2.0
e 248 37 1.0
e 248 136 1.0
e 248 397 1.0
e 248 575 2.0
e 249 289 1.0
e 249 319 1.0
e 249 302 1.0
e 249 556 1.0
e 250 443 1.0
e 250 168 48.0
e 250 122 22.0
e 250 568 48.0
e 251 315 1.0
e 251 174 38.0
e 251 63 48.0
e 251 278 11.0
e 252 565 1.0
e 252 59 2.0
e 252 293 1.0
e 252 551 1.0
e 253 201 1.0
e 253 543 1.0
e 253 133 1.0
e 253 165 1.0
e 254 19 1.0
e 254 428 2.0
e 254 494 1.0
e 254 450 2.0
e 255 257 2.0
e 255 18 45.0
e 255 136 2.0
e 255 384 3.0
e 256 599 1.0
e 256 535 1.0
e 256 299 1.0
e 256 434 1.0
e 257 201 2.0
e 257 443 1.0
e 257 439 1.0
e 257 263 1.0
e 258 429 28.0
e 258 56 2.0
e 258 140 1.0
e 258 541 3.0
e 259 158 1.0
e 259 312 2.0
e 259 187 1.0
e 259 493 1.0
e 260 222 1.0
e 260 48 1.0
e 260 104 2.0
e 260 488 1.0
e 261 134 15.0
e 261 457 1.0
e 261 622 43.0
e 261 493 2.0
e 262 226 1.0
e 262 591 1.0
e 262 472 1.0
e 262 419 1.0
e 263 542 1.0
e 263 197 1.0
e 263 2 1.0
e 263 148 1.0
e 264 435 9.0
e 264 360 1.0
e 264 538 2.0
e 264 596 1.0
e 265 115 1.0
e 265 168 19.0
e 265 263 1.0
e 265 321 1.0
e 266 364 2.0
e 266 241 3.0
e 266 202 2.0
e 266 417 22.0
e 267 530 1.0
e 267 261 2.0
e 267 89 2.0
e 267 386 2.0
e 268 216 1.0
e 268 497 1.0
e 268 421 2.0
e 268 442 1.0
e 269 404 1.0
e 269 295 2.0
e 269 33 2.0
e 269 412 1.0
e 270 506 1.0
e 270 92 2.0
e 270 110 1.0
e 270 341 2.0
e 271 338 3.0
e 271 372 2.0
e 271 175 1.0
e 271 163 1.0
e 272 2 1.0
e 272 43 45.0
e 272 185 1.0
e 272 375 1.0
e 273 471 1.0
e 273 221 1.0
e 273 7 1.0
e 273 0 1.0
e 274 199 3.0
e 274 61 2.0
e 274 513 2.0
e 274 119 1.0
e 275 155 1.0
e 275 6 1.0
e 275 84 25.0
e 275 394 5.0
e 276 402 1.0
e 276 470 2.0
e 276 58 14.0
e 276 449 2.0
e 277 295 1.0
e 277 638 1.0
e 277 330 1.0
e 277 22 1.0
e 278 37 46.0
e 278 294 16.0
e 278 534 16.0
e 278 182 49.0
e 279 355 1.0
e 279 483 1.0
e 279 57 35.0
e 279 271 1.0
e 280 109 1.0
e 280 144 1.0
e 280 481 1.0
e 280 242 1.0
e 281 386 3.0
e 281 353 4.0
e 281 71 41.0
e 281 252 9.0
e 281 237 37.0
e 281 309 47.0
e 281 43 35.0
e 282 489 1.0
e 282 236 1.0
e 282 494 1.0
e 282 245 1.0
e 283 452 1.0
e 283 352 1.0
e 283 253 1.0
e 283 506 1.0
e 284 286 2.0
e 284 599 2.0
e 284 410 2.0
e 284 463 16.0
e 285 235 1.0
e 285 553 2.0
e 285 78 44.0
e 285 82 2.0
e 286 483 1.0
e 286 116 1.0
e 286 300 1.0
e 286 574 1.0
e 287 271 1.0
e 287 291 2.0
e 287 464 1.0
e 287 338 41.0
e 288 81 1.0
e 288 151 1.0
e 288 59 1.0
e 288 594 1.0
e 289 3 1.0
e 289 330 1.0
e 289 188 1.0
e 289 572 2.0
e 290 233 1.0
e 290 143 13.0
e 290 112 2.0
e 290 361 1.0
e 291 519 2.0
e 291 382 1.0
e 291 233 3.0
e 291 367 2.0
e 292 526 1.0
e 292 591 1.0
e 292 614 2.0
e 292 377 1.0
e 293 298 1.0
e 293 66 1.0
e 293 521 1.0
e 293 244 1.0
e 294 17 31.0
e 294 379 3.0
e 294 28 1.0
e 294 403 1.0
e 295 89 1.0
e 295 157 1.0
e 295 460 1.0
e 296 212 1.0
e 296 551 1.0
e 296 501 1.0
e 296 408 1.0
e 297 255 3.0
e 297 64 1.0
e 297 190 1.0
e 297 391 1.0
e 298 486 1.0
e 298 154 1.0
e 298 349 1.0
e 298 525 1.0
e 299 439 1.0
e 299 586 1.0
e 299 380 39.0
e 299 210 1.0
e 300 54 1.0
e 300 392 1.0
e 300 176 1.0
e 300 188 1.0
e 301 453 2.0
e 301 221 3.0
e 301 457 1.0
e 301 119 3.0
e 302 582 1.0
e 302 241 1.0
e 302 315 1.0
e 302 49 1.0
e 303 174 16.0
e 303 120 3.0
e 303 529 1.0
e 303 305 2.0
e 304 79 1.0
e 304 397 28.0
e 304 311 1.0
e 304 350 2.0
e 305 479 2.0
e 305 430 3.0
e 305 451 33.0
e 305 158 2.0
e 306 514 1.0
e 306 549 1.0
e 306 373 1.0
e 306 172 1.0
e 307 448 1.0
e 307 306 2.0
e 307 122 2.0
e 307 599 1.0
e 308 234 1.0
e 308 516 1.0
e 308 222 2.0
e 308 463 44.0
e 309 443 28.0
e 309 242 26.0
e 309 240 38.0
e 309 61 7.0
e 309 343 33.0
e 309 323 29.0
e 310 13 1.0
e 310 621 1.0
e 310 563 1.0
e 310 232 1.0
e 311 34 1.0
e 311 298 1.0
e 311 399 1.0
e 311 560 1.0
e 312 579 1.0
e 312 47 1.0
e 312 406 1.0
e 312 600 1.0
e 313 328 2.0
e 313 169 1.0
e 313 478 2.0
e 313 430 1.0
e 314 150 1.0
e 314 16 1.0
e 314 103 2.0
e 314 465 1.0
e 315 124 30.0
e 315 345 1.0
e 315 492 1.0
e 315 62 1.0
e 316 442 1.0
e 316 37 1.0
e 316 423 1.0
e 316 631 2.0
e 317 202 1.0
e 317 180 2.0
e 317 335 1.0
e 317 256 1.0
e 318 222 2.0
e 318 566 49.0
e 318 612 2.0
e 318 444 1.0
e 319 180 1.0
e 319 635 1.0
e 319 579 1.0
e 319 364 1.0
e 320 207 2.0
e 320 385 1.0
e 320 3 1.0
e 320 123 48.0
e 321 376 7.0
e 321 401 40.0
e 321 582 1.0
e 321 287 1.0
e 322 347 3.0
e 322 258 2.0
e 322 602 1.0
e 322 392 1.0
e 323 505 24.0
e 323 79 16.0
e 323 455 47.0
e 323 498 30.0
e 324 477 1.0
e 324 97 2.0
e 324 463 2.0
e 324 291 1.0
e 325 510 2.0
e 325 482 1.0
e 325 380 12.0
e 325 420 4.0
e 326 456 1.0
e 326 202 2.0
e 326 401 43.0
e 326 231 1.0
e 327 77 2.0
e 327 212 1.0
e 327 47 1.0
e 327 49 3.0
e 328 271 1.0
e 328 438 1.0
e 328 64 1.0
e 328 221 1.0
e 329 412 2.0
e 329 200 1.0
e 329 300 2.0
e 329 366 2.0
e 330 402 2.0
e 330 286 1.0
e 330 573 1.0
e 330 369 2.0
e 331 109 12.0
e 331 483 15.0
e 331 364 49.0
e 331 267 15.0
e 331 309 34.0
e 331 394 6.0
e 331 332 20.0
e 332 501 2.0
e 332 338 14.0
e 332 486 18.0
e 332 118 47.0
e 333 158 1.0
e 333 474 1.0
e 333 495 2.0
e 333 8 2.0
e 334 534 2.0
e 334 570 1.0
e 334 380 34.0
e 334 63 1.0
e 335 316 1.0
e 335 595 1.0
e 335 340 1.0
e 335 239 2.0
e 336 150 1.0
e 336 245 1.0
e 336 334 1.0
e 336 222 1.0
e 337 173 1.0
e 337 331 21.0
e 337 251 1.0
e 337 379 2.0
e 338 238 42.0
e 338 300 39.0
e 338 464 41.0
e 338 49 33.0
e 339 194 2.0
e 339 370 1.0
e 339 400 1.0
e 339 165 1.0
e 340 62 2.0
e 340 579 1.0
e 340 429 17.0
e 340 594 1.0
e 341 194 2.0
e 341 257 1.0
e 341 256 1.0
e 341 580 1.0
e 342 114 44.0
e 342 354 29.0
e 342 487 26.0
e 342 404 10.0
e 342 500 1.0
e 343 319 13.0
e 343 118 17.0
e 343 451 13.0
e 343 595 19.0
e 344 401 28.0
e 344 573 1.0
e 344 555 1.0
e 344 179 2.0
e 345 486 1.0
e 345 233 1.0
e 345 478 1.0
e 345 620 1.0
e 346 527 1.0
e 346 539 1.0
e 346 474 2.0
e 346 75 1.0
e 347 533 19.0
e 347 550 17.0
e 347 376 27.0
e 347 7 30.0
e 348 300 25.0
e 348 448 47.0
e 348 156 15.0
e 348 333 5.0
e 348 281 16.0
e 348 331 5.0
e 348 57 20.0
e 348 153 34.0
e 349 294 2.0
e 349 151 1.0
e 349 198 2.0
e 349 3 1.0
e 350 554 35.0
e 350 473 1.0
e 350 618 1.0
e 350 85 1.0
e 351 450 2.0
e 351 113 46.0
e 351 506 1.0
e 351 394 13.0
e 352 94 2.0
e 352 33 1.0
e 352 482 1.0
e 352 277 1.0
e 353 299 1.0
e 353 335 1.0
e 353 212 1.0
e 353 414 1.0
e 354 307 2.0
e 354 140 1.0
e 354 152 1.0
e 354 315 3.0
e 355 140 1.0
e 355 296 1.0
e 355 383 1.0
e 355 600 1.0
e 356 35 1.0
e 356 507 1.0
e 356 33 1.0
e 356 164 1.0
e 357 307 2.0
e 357 437 24.0
e 357 338 47.0
e 357 130 2.0
e 358 598 1.0
e 358 256 1.0
e 358 207 1.0
e 358 284 2.0
e 359 580 1.0
e 359 244 1.0
e 359 320 1.0
e 359 214 1.0
e 360 550 2.0
e 360 636 1.0
e 360 606 1.0
e 360 406 1.0
e 361 320 1.0
e 361 464 1.0
e 361 243 1.0
e 361 374 1.0
e 362 376 3.0
e 362 93 2.0
e 362 288 1.0
e 362 584 1.0
e 363 469 1.0
e 363 0 1.0
e 363 417 45.0
e 363 162 1.0
e 364 240 1.0
e 364 412 1.0
e 364 568 4.0
e 364 166 1.0
e 365 306 1.0
e 365 391 1.0
e 365 321 1.0
e 365 204 2.0
e 366 597 1.0
e 366 383 2.0
e 366 120 1.0
e 366 315 1.0
e 367 26 48.0
e 367 117 2.0
e 367 525 1.0
e 367 342 20.0
e 368 564 1.0
e 368 519 1.0
e 368 209 1.0
e 368 90 1.0
e 369 74 6.0
e 369 275 1.0
e 369 496 1.0
e 369 507 1.0
e 370 165 1.0
e 370 454 1.0
e 370 282 1.0
e 370 414 1.0
e 371 606 1.0
e 371 596 2.0
e 371 488 2.0
e 371 337 1.0
e 372 26 23.0
e 372 138 1.0
e 372 300 1.0
e 372 334 1.0
e 373 426 1.0
e 373 256 1.0
e 373 417 26.0
e 373 541 1.0
e 374 284 1.0
e 374 523 22.0
e 374 279 1.0
e 374 212 1.0
e 375 268 1.0
e 375 49 2.0
e 375 42 1.0
e 375 105 1.0
e 376 393 26.0
e 376 507 48.0
e 376 520 46.0
e 376 402 12.0
e 377 392 1.0
e 377 624 1.0
e 377 586 1.0
e 377 296 1.0
e 378 202 2.0
e 378 101 34.0
e 378 463 45.0
e 378 15 1.0
e 379 411 3.0
e 379 236 1.0
e 379 621 2.0
e 379 534 2.0
e 380 4 30.0
e 380 501 43.0
e 380 612 6.0
e 380 154 39.0
e 381 224 1.0
e 381 415 1.0
e 381 390 1.0
e 381 604 1.0
e 382 327 2.0
e 382 351 1.0
e 382 149 1.0
e 382 328 1.0
e 383 258 1.0
e 383 529 1.0
e 383 136 2.0
e 383 594 1.0
e 384 535 1.0
e 384 305 2.0
e 384 357 1.0
e 384 128 1.0
e 385 36 1.0
e 385 212 1.0
e 385 239 2.0
e 385 297 2.0
e 386 251 49.0
e 386 244 1.0
e 386 419 1.0
e 386 205 1.0
e 387 480 1.0
e 387 148 1.0
e 387 512 7.0
e 387 486 1.0
e 388 354 3.0
e 388 369 2.0
e 388 379 1.0
e 388 334 2.0
e 389 551 1.0
e 389 24 1.0
e 389 603 1.0
e 389 154 1.0
e 390 370 1.0
e 390 385 1.0
e 390 67 1.0
e 390 149 3.0
e 391 350 1.0
e 391 106 1.0
e 391 617 1.0
e 391 448 1.0
e 392 401 22.0
e 392 218 1.0
e 392 251 46.0
e 392 583 1.0
e 393 326 1.0
e 393 11 1.0
e 393 28 1.0
e 393 600 1.0
e 394 119 34.0
e 394 437 8.0
e 394 271 7.0
e 394 429 32.0
e 395 486 1.0
e 395 257 1.0
e 395 550 1.0
e 395 366 1.0
e 396 342 22.0
e 396 465 37.0
e 396 110 32.0
e 396 162 4.0
e 397 570 21.0
e 397 154 35.0
e 397 435 20.0
e 397 631 36.0
e 398 479 1.0
e 398 72 2.0
e 398 421 1.0
e 398 517 1.0
e 399 212 1.0
e 399 462 1.0
e 399 623 1.0
e 399 608 1.0
e 400 464 1.0
e 400 170 2.0
e 400 153 44.0
e 400 279 2.0
e 401 60 19.0
e 401 316 13.0
e 401 622 35.0
e 401 526 6.0
e 402 60 2.0
e 402 162 1.0
e 402 616 1.0
e 402 295 1.0
e 403 357 2.0
e 403 65 4.0
e 403 378 1.0
e 403 542 1.0
e 404 386 1.0
e 404 300 1.0
e 404 575 1.0
e 404 587 36.0
e 405 29 1.0
e 405 278 32.0
e 405 129 22.0
e 405 209 1.0
e 406 168 21.0
e 406 629 1.0
e 406 467 1.0
e 406 134 15.0
e 407 304 46.0
e 407 52 33.0
e 407 214 25.0
e 408 364 1.0
e 408 599 1.0
e 408 412 1.0
e 408 268 1.0
e 409 260 1.0
e 409 463 19.0
e 409 428 2.0
e 409 304 1.0
e 410 115 2.0
e 410 234 1.0
e 410 111 7.0
e 410 411 1.0
e 411 20 1.0
e 411 250 1.0
e 411 292 1.0
e 411 512 3.0
e 412 284 1.0
e 412 242 2.0
e 412 334 1.0
e 412 446 2.0
e 413 230 33.0
e 413 359 46.0
e 413 489 2.0
e 413 486 40.0
e 413 50 4.0
e 413 58 17.0
e 414 386 1.0
e 414 398 1.0
e 414 33 2.0
e 414 223 1.0
e 415 104 3.0
e 415 321 3.0
e 415 330 1.0
e 415 9 1.0
e 416 219 1.0
e 416 286 1.0
e 416 87 1.0
e 416 521 1.0
e 417 498 11.0
e 417 585 6.0
e 417 240 33.0
e 418 34 1.0
e 418 356 1.0
e 418 215 1.0
e 418 507 1.0
e 419 517 1.0
e 419 393 1.0
e 419 455 1.0
e 419 239 1.0
e 420 174 25.0
e 420 452 33.0
e 420 269 28.0
e 420 349 7.0
e 420 343 30.0
e 420 568 21.0
e 420 332 15.0
e 421 494 1.0
e 421 299 1.0
e 421 358 1.0
e 421 195 1.0
e 422 333 1.0
e 422 139 2.0
e 422 35 2.0
e 422 554 13.0
e 423 626 1.0
e 423 381 1.0
e 423 32 1.0
e 423 355 1.0
e 424 550 2.0
e 424 352 1.0
e 424 78 39.0
e 424 38 1.0
e 425 202 1.0
e 425 367 1.0
e 425 205 1.0
e 425 312 2.0
e 426 251 19.0
e 426 68 1.0
e 426 180 1.0
e 426 344 1.0
e 427 129 13.0
e 427 343 40.0
e 427 469 12.0
e 427 204 1.0
e 427 500 7.0
e 428 385 2.0
e 428 31 1.0
e 428 61 1.0
e 428 64 1.0
e 429 623 26.0
e 429 338 39.0
e 429 435 44.0
e 429 89 48.0
e 430 343 19.0
e 430 483 2.0
e 430 577 1.0
e 430 517 1.0
e 431 479 2.0
e 431 356 1.0
e 431 294 1.0
e 431 91 1.0
e 432 468 1.0
e 432 262 1.0
e 432 308 1.0
e 432 232 1.0
e 433 395 1.0
e 433 22 1.0
e 433 182 1.0
e 433 279 1.0
e 434 516 1.0
e 434 411 1.0
e 434 569 1.0
e 434 89 1.0
e 435 452 18.0
e 435 275 18.0
e 435 426 6.0
e 435 563 11.0
e 436 283 1.0
e 436 146 1.0
e 436 315 1.0
e 436 2 1.0
e 437 499 29.0
e 437 182 35.0
e 437 484 6.0
e 437 412 47.0
e 437 342 39.0
e 438 612 1.0
e 438 380 37.0
e 438 615 1.0
e 438 506 1.0
e 439 154 2.0
e 439 211 2.0
e 439 419 1.0
e 439 418 1.0
e 440 231 2.0
e 440 352 2.0
e 440 255 1.0
e 440 356 1.0
e 441 21 1.0
e 441 93 1.0
e 441 233 1.0
e 442 304 1.0
e 442 213 1.0
e 442 499 1.0
e 442 102 2.0
e 443 183 1.0
e 443 86 27.0
e 443 223 1.0
e 443 496 1.0
e 444 29 1.0
e 444 539 1.0
e 444 12 1.0
e 444 130 2.0
e 445 475 1.0
e 445 625 1.0
e 445 144 1.0
e 445 509 1.0
e 446 225 1.0
e 446 483 2.0
e 446 579 1.0
e 446 504 1.0
e 447 396 17.0
e 447 29 1.0
e 447 397 16.0
e 447 572 3.0
e 448 425 1.0
e 448 388 1.0
e 448 213 1.0
e 448 500 20.0
e 449 266 2.0
e 449 556 1.0
e 449 395 2.0
e 449 122 18.0
e 450 356 1.0
e 450 398 1.0
e 450 380 45.0
e 450 561 1.0
e 451 38 45.0
e 451 226 25.0
e 451 157 31.0
e 452 506 1.0
e 452 267 1.0
e 452 49 2.0
e 452 241 2.0
e 453 554 11.0
e 453 79 1.0
e 453 626 1.0
e 453 150 1.0
e 454 161 1.0
e 454 219 1.0
e 454 178 1.0
e 454 529 1.0
e 455 224 1.0
e 455 78 17.0
e 455 152 2.0
e 455 186 1.0
e 456 395 2.0
e 456 86 48.0
e 456 45 1.0
e 456 366 1.0
e 457 546 1.0
e 457 573 2.0
e 457 258 1.0
e 457 407 44.0
e 458 241 1.0
e 458 543 1.0
e 458 314 1.0
e 458 578 15.0
e 459 217 1.0
e 459 39 1.0
e 459 520 2.0
e 459 35 1.0
e 460 585 1.0
e 460 324 1.0
e 460 468 3.0
e 460 581 1.0
e 461 444 1.0
e 461 347 14.0
e 461 510 1.0
e 461 628 1.0
e 462 26 14.0
e 462 164 1.0
e 462 618 1.0
e 462 197 2.0
e 463 537 24.0
e 463 31 7.0
e 463 171 7.0
e 463 637 19.0
e 464 333 2.0
e 464 125 49.0
e 464 228 1.0
e 464 143 11.0
e 465 129 28.0
e 465 102 2.0
e 465 523 6.0
e 465 276 1.0
e 466 249 1.0
e 466 82 1.0
e 466 608 1.0
e 466 83 1.0
e 467 64 1.0
e 467 285 1.0
e 467 566 2.0
e 467 76 1.0
e 468 601 1.0
e 468 366 1.0
e 468 409 1.0
e 468 536 1.0
e 469 225 2.0
e 469 635 1.0
e 469 457 1.0
e 469 525 2.0
e 470 129 26.0
e 470 217 2.0
e 470 91 1.0
e 470 600 1.0
e 471 432 1.0
e 471 533 2.0
e 471 124 39.0
e 472 251 44.0
e 472 390 1.0
e 472 203 1.0
e 472 168 24.0
e 473 631 1.0
e 473 515 1.0
e 473 504 1.0
e 473 174 31.0
e 474 313 2.0
e 474 610 2.0
e 474 496 1.0
e 474 376 47.0
e 475 585 1.0
e 475 520 1.0
e 475 32 1.0
e 475 328 1.0
e 476 336 1.0
e 476 327 2.0
e 476 228 1.0
e 476 604 1.0
e 477 352 1.0
e 477 447 1.0
e 477 24 1.0
e 477 211 1.0
e 478 487 1.0
e 478 230 1.0
e 478 239 1.0
e 478 14 1.0
e 479 201 1.0
e 479 370 1.0
e 479 596 1.0
e 479 432 1.0
e 480 127 1.0
e 480 617 3.0
e 480 295 1.0
e 480 583 1.0
e 481 187 1.0
e 481 408 1.0
e 481 422 1.0
e 481 30 1.0
e 482 514 2.0
e 482 148 1.0
e 482 78 28.0
e 482 597 2.0
e 483 120 1.0
e 483 465 1.0
e 483 572 1.0
e 483 354 1.0
e 484 470 1.0
e 484 607 38.0
e 484 220 1.0
e 484 511 1.0
e 485 158 1.0
e 485 491 2.0
e 485 193 42.0
e 485 8 1.0
e 486 141 1.0
e 486 187 1.0
e 486 609 1.0
e 486 496 2.0
e 487 55 1.0
e 487 453 1.0
e 487 534 2.0
e 487 99 1.0
e 488 414 1.0
e 488 357 1.0
e 488 122 39.0
e 488 525 2.0
e 489 445 1.0
e 489 97 1.0
e 489 189 1.0
e 489 388 1.0
e 490 352 2.0
e 490 5 1.0
e 490 287 1.0
e 490 626 1.0
e 491 358 1.0
e 491 85 1.0
e 491 81 1.0
e 491 510 1.0
e 492 372 1.0
e 492 486 1.0
e 492 334 2.0
e 492 514 1.0
e 493 318 1.0
e 493 561 2.0
e 493 138 1.0
e 494 257 1.0
e 494 197 1.0
e 494 604 1.0
e 494 461 1.0
e 495 142 2.0
e 495 111 17.0
e 495 166 1.0
e 495 202 1.0
e 496 358 1.0
e 496 87 1.0
e 496 378 2.0
e 496 125 7.0
e 497 319 1.0
e 497 24 1.0
e 497 348 22.0
e 497 220 1.0
e 498 606 18.0
e 498 139 11.0
e 498 583 45.0
e 498 268 45.0
e 499 403 2.0
e 499 364 1.0
e 499 341 1.0
e 499 185 1.0
e 500 166 15.0
e 500 235 43.0
e 500 226 4.0
e 500 592 44.0
e 501 273 1.0
e 501 460 1.0
e 501 46 1.0
e 501 277 1.0
e 502 55 1.0
e 502 392 2.0
e 502 563 2.0
e 502 526 1.0
e 503 116 1.0
e 503 26 8.0
e 503 102 1.0
e 503 193 4.0
e 504 132 1.0
e 504 343 19.0
e 504 573 2.0
e 504 123 11.0
e 505 457 1.0
e 505 279 1.0
e 505 44 1.0
e 505 634 1.0
e 506 224 1.0
e 506 264 1.0
e 506 533 2.0
e 506 28 1.0
e 507 171 3.0
e 507 585 1.0
e 507 165 1.0
e 507 417 22.0
e 508 344 1.0
e 508 162 1.0
e 508 122 17.0
e 508 352 1.0
e 509 613 1.0
e 509 475 1.0
e 509 25 1.0
e 509 534 1.0
e 510 261 2.0
e 510 486 1.0
e 510 532 47.0
e 511 18 42.0
e 511 29 1.0
e 511 248 2.0
e 511 506 1.0
e 512 407 42.0
e 512 182 15.0
e 512 502 44.0
e 512 108 34.0
e 513 215 2.0
e 513 413 43.0
e 513 156 3.0
e 513 152 2.0
e 514 355 1.0
e 514 501 1.0
e 514 294 1.0
e 514 633 1.0
e 515 607 15.0
e 515 70 1.0
e 515 506 1.0
e 515 47 2.0
e 516 436 1.0
e 516 377 1.0
e 516 564 1.0
e 517 56 1.0
e 517 306 1.0
e 517 27 1.0
e 517 561 1.0
e 518 562 21.0
e 518 279 9.0
e 518 430 21.0
e 518 251 38.0
e 518 348 34.0
e 518 397 39.0
e 518 544 25.0
e 518 23 28.0
e 519 145 1.0
e 519 525 1.0
e 519 468 1.0
e 519 149 3.0
e 520 102 1.0
e 520 330 2.0
e 520 596 2.0
e 520 21 3.0
e 521 248 1.0
e 521 13 1.0
e 521 370 1.0
e 521 449 1.0
e 522 127 1.0
e 522 112 2.0
e 522 149 1.0
e 522 221 1.0
e 523 75 18.0
e 523 160 36.0
e 523 428 30.0
e 523 191 31.0
e 524 521 1.0
e 524 498 11.0
e 524 479 2.0
e 524 32 1.0
e 525 581 1.0
e 525 471 1.0
e 525 602 1.0
e 525 6 1.0
e 526 407 7.0
e 526 256 1.0
e 526 24 1.0
e 526 218 1.0
e 527 43 2.0
e 527 59 1.0
e 527 322 2.0
e 527 520 1.0
e 528 229 1.0
e 528 179 1.0
e 528 250 1.0
e 528 102 1.0
e 529 419 1.0
e 529 197 1.0
e 529 313 1.0
e 529 370 1.0
e 530 396 1.0
e 530 610 1.0
e 530 136 1.0
e 530 595 1.0
e 531 91 1.0
e 531 419 1.0
e 531 584 1.0
e 531 496 1.0
e 532 623 32.0
e 532 342 36.0
e 532 119 30.0
e 532 120 14.0
e 532 427 17.0
e 533 404 2.0
e 533 269 1.0
e 533 489 1.0
e 533 384 2.0
e 534 376 2.0
e 534 412 1.0
e 534 560 1.0
e 534 492 1.0
e 535 150 1.0
e 535 618 1.0
e 535 107 1.0
e 535 370 1.0
e 536 255 1.0
e 536 477 1.0
e 536 603 1.0
e 536 453 2.0
e 537 56 47.0
e 537 31 9.0
e 537 96 8.0
e 537 44 14.0
e 537 65 38.0
e 537 134 20.0
e 538 235 1.0
e 538 474 1.0
e 538 176 1.0
e 538 276 1.0
e 539 102 1.0
e 539 212 1.0
e 539 110 1.0
e 539 165 1.0
e 540 374 29.0
e 540 380 29.0
e 540 169 12.0
e 540 222 36.0
e 540 407 1.0
e 541 305 1.0
e 541 201 1.0
e 541 494 2.0
e 541 344 1.0
e 542 398 1.0
e 542 360 1.0
e 542 638 1.0
e 542 189 1.0
e 543 627 1.0
e 543 492 1.0
e 543 513 2.0
e 543 367 1.0
e 544 386 5.0
e 544 595 47.0
e 544 88 26.0
e 544 317 12.0
e 544 95 2.0
e 544 512 14.0
e 545 270 1.0
e 545 539 1.0
e 545 0 1.0
e 545 402 2.0
e 546 216 1.0
e 546 633 2.0
e 546 219 1.0
e 546 278 10.0
e 547 51 40.0
e 547 57 30.0
e 547 294 46.0
e 547 79 47.0
e 547 413 30.0
e 547 77 43.0
e 547 622 36.0
e 547 417 6.0
e 548 42 1.0
e 548 72 39.0
e 548 245 42.0
e 548 70 49.0
e 548 143 36.0
e 548 518 8.0
e 549 352 1.0
e 549 493 1.0
e 549 114 1.0
e 549 392 1.0
e 550 295 2.0
e 550 478 1.0
e 550 46 1.0
e 550 594 1.0
e 551 213 1.0
e 551 534 1.0
e 551 564 1.0
e 551 272 1.0
e 552 556 1.0
e 552 210 1.0
e 552 461 1.0
e 552 538 1.0
e 553 226 2.0
e 553 516 2.0
e 553 394 25.0
e 553 98 1.0
e 554 342 38.0
e 554 362 30.0
e 554 245 5.0
e 554 329 15.0
e 555 486 1.0
e 555 324 1.0
e 555 566 18.0
e 555 463 26.0
e 556 542 1.0
e 556 69 1.0
e 556 11 1.0
e 556 205 1.0
e 557 141 1.0
e 557 369 2.0
e 557 613 1.0
e 557 365 2.0
e 558 356 1.0
e 558 422 1.0
e 558 112 2.0
e 558 196 2.0
e 559 192 1.0
e 559 253 1.0
e 559 117 2.0
e 559 53 1.0
e 560 240 1.0
e 560 492 1.0
e 560 535 1.0
e 561 227 1.0
e 561 307 2.0
e 561 506 1.0
e 561 249 2.0
e 562 217 1.0
e 562 20 1.0
e 562 187 2.0
e 562 417 35.0
e 563 39 1.0
e 563 538 1.0
e 563 254 1.0
e 563 195 2.0
e 564 256 1.0
e 564 570 1.0
e 564 176 1.0
e 564 608 1.0
e 565 567 1.0
e 565 357 1.0
e 565 281 5.0
e 565 255 1.0
e 566 221 14.0
e 566 393 45.0
e 566 249 21.0
e 566 611 26.0
e 567 543 1.0
e 567 288 1.0
e 567 637 1.0
e 567 188 1.0
e 568 435 37.0
e 568 46 40.0
e 568 220 29.0
e 568 95 9.0
e 568 78 20.0
e 568 429 9.0
e 569 566 32.0
e 569 225 2.0
e 569 364 2.0
e 569 7 1.0
e 570 153 44.0
e 570 420 34.0
e 570 76 1.0
e 570 551 1.0
e 571 501 1.0
e 571 484 1.0
e 571 157 2.0
e 571 245 1.0
e 572 412 1.0
e 572 631 2.0
e 572 384 1.0
e 572 498 33.0
e 573 452 1.0
e 573 508 2.0
e 573 250 2.0
e 573 347 26.0
e 574 266 2.0
e 574 199 2.0
e 574 180 1.0
e 574 213 1.0
e 575 474 1.0
e 575 554 29.0
e 575 315 1.0
e 575 332 48.0
e 576 172 1.0
e 576 92 1.0
e 576 171 1.0
e 576 335 2.0
e 577 265 1.0
e 577 582 1.0
e 577 592 1.0
e 578 503 31.0
e 578 270 35.0
e 578 117 30.0
e 578 363 30.0
e 578 587 45.0
e 578 532 44.0
e 578 568 41.0
e 579 498 23.0
e 579 288 1.0
e 579 289 1.0
e 579 451 22.0
e 580 336 1.0
e 580 259 1.0
e 580 264 1.0
e 580 323 1.0
e 581 167 1.0
e 581 463 27.0
e 581 43 17.0
e 581 597 1.0
e 582 291 2.0
e 582 414 1.0
e 582 286 1.0
e 582 490 1.0
e 583 437 34.0
e 583 13 1.0
e 583 145 1.0
e 583 550 2.0
e 584 224 1.0
e 584 141 1.0
e 584 107 1.0
e 584 270 1.0
e 585 66 1.0
e 585 7 1.0
e 585 288 1.0
e 585 242 1.0
e 586 205 1.0
e 586 367 1.0
e 586 148 1.0
e 586 213 1.0
e 587 593 33.0
e 587 14 3.0
e 587 95 25.0
e 587 415 12.0
e 587 420 25.0
e 587 84 25.0
e 588 84 17.0
e 588 87 2.0
e 588 567 1.0
e 588 255 2.0
e 589 29 1.0
e 589 363 1.0
e 589 205 1.0
e 589 345 1.0
e 590 62 2.0
e 590 444 1.0
e 590 50 30.0
e 590 293 1.0
e 591 415 1.0
e 591 251 14.0
e 591 598 6.0
e 591 372 2.0
e 592 599 1.0
e 592 623 1.0
e 592 211 2.0
e 592 215 1.0
e 593 194 1.0
e 593 413 36.0
e 593 207 1.0
e 593 455 1.0
e 594 567 1.0
e 594 408 1.0
e 594 508 1.0
e 594 489 1.0
e 595 11 2.0
e 595 61 1.0
e 595 491 1.0
e 595 140 1.0
e 596 236 1.0
e 596 83 2.0
e 596 168 47.0
e 596 593 1.0
e 597 391 1.0
e 597 48 2.0
e 597 135 1.0
e 597 441 1.0
e 598 363 1.0
e 598 323 41.0
e 598 101 41.0
e 598 339 3.0
e 599 147 1.0
e 599 553 1.0
e 599 504 1.0
e 599 596 1.0
e 600 42 1.0
e 600 377 1.0
e 600 347 11.0
e 600 331 11.0
e 601 366 1.0
e 601 195 1.0
e 601 597 2.0
e 602 240 1.0
e 602 167 1.0
e 602 87 3.0
e 602 129 48.0
e 603 125 5.0
e 603 255 1.0
e 603 251 26.0
e 603 580 1.0
e 604 50 28.0
e 604 323 17.0
e 604 356 1.0
e 604 338 16.0
e 605 623 1.0
e 605 280 1.0
e 605 550 1.0
e 605 426 1.0
e 606 427 29.0
e 606 135 1.0
e 606 346 1.0
e 606 533 1.0
e 607 364 2.0
e 607 508 4.0
e 607 300 20.0
e 607 442 30.0
e 608 265 1.0
e 608 464 1.0
e 608 21 1.0
e 608 352 1.0
e 609 330 1.0
e 609 11 1.0
e 609 50 15.0
e 609 145 1.0
e 610 358 1.0
e 610 220 1.0
e 610 258 2.0
e 610 12 1.0
e 611 396 11.0
e 611 194 3.0
e 611 621 1.0
e 611 364 1.0
e 612 156 1.0
e 612 337 2.0
e 612 158 1.0
e 612 118 2.0
e 613 144 1.0
e 613 524 1.0
e 613 409 1.0
e 613 406 1.0
e 614 240 2.0
e 614 176 1.0
e 614 337 2.0
e 614 523 49.0
e 615 487 1.0
e 615 514 2.0
e 615 191 30.0
e 615 471 1.0
e 616 139 1.0
e 616 373 2.0
e 616 340 1.0
e 616 299 1.0
e 617 87 1.0
e 617 98 2.0
e 617 102 3.0
e 617 532 17.0
e 618 405 3.0
e 618 390 1.0
e 618 524 1.0
e 618 349 1.0
e 619 58 18.0
e 619 396 28.0
e 619 433 1.0
e 619 571 1.0
e 620 149 2.0
e 620 234 2.0
e 620 42 1.0
e 620 93 1.0
e 621 625 1.0
e 621 218 1.0
e 621 390 1.0
e 621 169 1.0
e 622 332 43.0
e 622 1 13.0
e 622 101 43.0
e 622 379 35.0
e 623 264 1.0
e 623 601 1.0
e 623 219 1.0
e 624 187 1.0
e 624 289 1.0
e 624 380 46.0
e 624 543 1.0
e 625 362 1.0
e 625 378 1.0
e 625 390 1.0
e 625 374 1.0
e 626 517 1.0
e 626 557 2.0
e 626 304 1.0
e 626 582 1.0
e 627 390 1.0
e 627 129 8.0
e 627 263 2.0
e 627 203 1.0
e 628 87 1.0
e 628 512 42.0
e 628 36 2.0
e 628 312 2.0
e 629 216 1.0
e 629 244 1.0
e 629 557 1.0
e 629 621 1.0
e 630 424 40.0
e 630 409 25.0
e 630 471 11.0
e 630 200 46.0
e 630 101 24.0
e 630 86 37.0
e 631 234 1.0
e 631 238 1.0
e 631 64 1.0
e 631 301 1.0
e 632 47 1.0
e 632 392 1.0
e 632 21 1.0
e 632 303 1.0
e 633 309 15.0
e 633 606 2.0
e 633 258 1.0
e 633 624 1.0
e 634 72 2.0
e 634 102 1.0
e 634 209 1.0
e 634 497 1.0
e 635 51 1.0
e 635 243 1.0
e 635 483 2.0
e 635 419 1.0
e 636 253 1.0
e 636 530 1.0
e 636 381 2.0
e 636 593 1.0
e 637 58 42.0
e 637 500 9.0
e 637 461 1.0
e 637 455 1.0
e 638 572 1.0
e 638 483 1.0
e 638 233 1.0
e 638 227 2.0
e 639 203 1.0
e 639 581 1.0
e 639 226 1.0
e 639 456 1.0
